data/mip_solutions/chen_grossmann_miller/reduced_transportation/balanced5_cplex.sol
Elapsed time: 0.260056972504
Nodes explored: 154
Upper bound: 14.0
Lower bound: 14.0
y[0,0]=1
y[0,1]=1
y[0,3]=1
y[1,1]=1
y[1,2]=1
y[2,4]=1
y[2,5]=1
y[3,2]=1
y[3,3]=1
y[4,0]=1
y[4,4]=1
y[5,3]=1
y[5,4]=1
y[6,3]=1
q[0,2,3,3]=20.0
q[0,3,3,3]=30.0
q[0,4,0,4]=2.0
q[0,4,0,5]=8.0
q[0,5,0,5]=10.0
q[0,5,3,5]=30.0
q[0,6,0,6]=8.0
q[0,6,1,6]=55.0
q[0,6,3,6]=27.0
q[0,7,0,7]=40.0
q[0,8,1,8]=10.0
q[0,9,1,9]=40.0
q[1,5,1,6]=10.0
q[1,5,2,5]=25.0
q[1,5,2,6]=45.0
q[1,6,2,6]=180.0
q[1,7,1,7]=52.0
q[1,7,1,8]=3.0
q[1,7,1,9]=25.0
q[1,8,2,10]=20.0
q[1,9,2,10]=80.0
q[2,3,4,3]=45.0
q[2,4,4,4]=15.0
q[2,5,4,5]=50.0
q[2,5,4,6]=10.0
q[2,6,4,6]=135.0
q[2,7,4,7]=30.0
q[2,7,5,11]=30.0
q[2,8,5,11]=15.0
q[2,9,5,11]=15.0
q[3,6,3,6]=225.0
q[3,7,2,7]=100.0
q[3,8,2,8]=25.0
q[3,9,2,9]=125.0
q[3,10,2,10]=25.0
q[4,1,0,1]=15.0
q[4,1,4,1]=19.0
q[4,2,0,2]=30.0
q[4,2,4,2]=4.0
q[4,3,0,3]=45.0
q[4,3,4,3]=6.0
q[4,4,0,4]=13.0
q[4,4,4,4]=4.0
q[4,5,0,5]=42.0
q[4,5,4,5]=26.0
q[4,6,0,6]=127.0
q[4,6,4,6]=26.0
q[4,7,0,7]=20.0
q[4,7,4,7]=46.0
q[4,7,4,8]=2.0
q[4,8,4,8]=17.0
q[5,0,3,2]=28.0
q[5,0,3,3]=34.0
q[5,0,4,0]=76.0
q[5,0,4,1]=19.0
q[5,0,4,2]=34.0
q[5,0,4,3]=6.0
q[6,4,3,4]=28.0
q[6,4,3,5]=82.0
